# Solution for model example
# Objective value = 15
y_state0_action0 1
y_state0_action1 1
y_state1_action1 1
y_state2_action0 1
y_state2_action1 1
y_state3_action1 1
y_state4_action0 1
y_state5_action0 1
y_state6_action0 1
y_state7_action0 1
y_state8_action1 1
y_state9_action0 1
y_state10_action0 1
y_state11_action0 1
y_state12_action0 1
y_state13_action2 1
y_state14_action2 1
y_state14_action1 1
y_state15_action0 1
y_state16_action0 1
y_state17_action3 1
y_state18_action2 1
y_state19_action2 1
y_state20_action2 1
y_state21_action2 1
x_reward0_state0_lower 6
x_reward0_state0_upper 1.1999999997671688e+01
x_reward0_state1_lower 7
x_reward0_state1_upper 1.0999999997671688e+01
x_reward0_state2_lower 6
x_reward0_state2_upper 9.9999999976716882e+00
x_reward0_state3_lower 9
x_reward0_state3_upper 9
x_reward0_state4_lower 8
x_reward0_state4_upper 8
x_reward0_state5_lower 5
x_reward0_state5_upper 1.0999999997671688e+01
x_reward0_state6_lower 5
x_reward0_state6_upper 8.9999999976716882e+00
x_reward0_state7_lower 7
x_reward0_state7_upper 7
x_reward0_state8_lower 4
x_reward0_state8_upper 9.9999999976716882e+00
x_reward0_state9_lower 3
x_reward0_state9_upper 8.9999999976716882e+00
x_reward0_state10_lower 4
x_reward0_state10_upper 7.9999999976716882e+00
x_reward0_state11_lower 6
x_reward0_state11_upper 6
x_reward0_state12_lower 1
x_reward0_state12_upper 1
x_reward0_state13_lower 2
x_reward0_state13_upper 2
x_reward0_state14_lower 3
x_reward0_state14_upper 6.9999999976716936e+00
x_reward0_state15_lower 4
x_reward0_state15_upper 5.9999999976716936e+00
x_reward0_state16_lower 5
x_reward0_state16_upper 5
x_reward0_state17_lower 0
x_reward0_state17_upper 0
x_reward0_state18_lower 1
x_reward0_state18_upper 1
x_reward0_state19_lower 2
x_reward0_state19_upper 2
x_reward0_state20_lower 3
x_reward0_state20_upper 3
x_reward0_state21_lower 4
x_reward0_state21_upper 4
x_reward1_state0_lower 0
x_reward1_state0_upper 5
x_reward1_state1_lower 0
x_reward1_state1_upper 5
x_reward1_state2_lower 0
x_reward1_state2_upper 5
x_reward1_state3_lower 0
x_reward1_state3_upper 5
x_reward1_state4_lower 0
x_reward1_state4_upper 5
x_reward1_state5_lower 5
x_reward1_state5_upper 5
x_reward1_state6_lower 1
x_reward1_state6_upper 5
x_reward1_state7_lower 0
x_reward1_state7_upper 5
x_reward1_state8_lower 5
x_reward1_state8_upper 5
x_reward1_state9_lower 4
x_reward1_state9_upper 4
x_reward1_state10_lower 1
x_reward1_state10_upper 5
x_reward1_state11_lower 0
x_reward1_state11_upper 0
x_reward1_state12_lower 1
x_reward1_state12_upper 1
x_reward1_state13_lower 2.5
x_reward1_state13_upper 2.5
x_reward1_state14_lower 1
x_reward1_state14_upper 5
x_reward1_state15_lower 1
x_reward1_state15_upper 1
x_reward1_state16_lower 0
x_reward1_state16_upper 0
x_reward1_state17_lower 0
x_reward1_state17_upper 0
x_reward1_state18_lower 0
x_reward1_state18_upper 0
x_reward1_state19_lower 0
x_reward1_state19_upper 0
x_reward1_state20_lower 0
x_reward1_state20_upper 0
x_reward1_state21_lower 0
x_reward1_state21_upper 0
x_reward2_state0_lower 1
x_reward2_state0_upper 5
x_reward2_state1_lower 1
x_reward2_state1_upper 5
x_reward2_state2_lower 1
x_reward2_state2_upper 5
x_reward2_state3_lower 1
x_reward2_state3_upper 5
x_reward2_state4_lower 1
x_reward2_state4_upper 4.9999999934807411e+00
x_reward2_state5_lower 5
x_reward2_state5_upper 5
x_reward2_state6_lower 3
x_reward2_state6_upper 5
x_reward2_state7_lower 1
x_reward2_state7_upper 4.9999999934807411e+00
x_reward2_state8_lower 4
x_reward2_state8_upper 4
x_reward2_state9_lower 3
x_reward2_state9_upper 3
x_reward2_state10_lower 2
x_reward2_state10_upper 4
x_reward2_state11_lower 1
x_reward2_state11_upper 4.9999999934807411e+00
x_reward2_state12_lower 1
x_reward2_state12_upper 1
x_reward2_state13_lower 2
x_reward2_state13_upper 2
x_reward2_state14_lower 1
x_reward2_state14_upper 3
x_reward2_state15_lower 1
x_reward2_state15_upper 1
x_reward2_state16_lower 1
x_reward2_state16_upper 4.9999999934807411e+00
x_reward2_state17_lower 0
x_reward2_state17_upper 0
x_reward2_state18_lower 0
x_reward2_state18_upper 0
x_reward2_state19_lower 0
x_reward2_state19_upper 0
x_reward2_state20_lower 0
x_reward2_state20_upper 0
x_reward2_state21_lower 1
x_reward2_state21_upper 1
